
Gurobi 11.0.3 (linux64) logging started Sun Nov 24 18:09:37 2024

Set parameter LogFile to value "/home/yihong/Coding/OR_SUC/SUC_results_bigM100000_thread4/case24_ieee_rts_theta0.5_epsilon0.05_gurobi_seed1490000_num_gen100_N_WDR100_load_scaling_factor1_proposed_T28quadra_cost.txt"
Set parameter TimeLimit to value 3600
Gurobi Optimizer version 11.0.3 build v11.0.3rc0 (linux64 - "Ubuntu 20.04.6 LTS")

CPU model: AMD EPYC 7532 32-Core Processor, instruction set [SSE2|AVX|AVX2]
Thread count: 64 physical cores, 128 logical processors, using up to 4 threads

Optimize a model with 67234 rows, 34821 columns and 1535514 nonzeros
Model fingerprint: 0x092c6518
Model has 2800 quadratic constraints
Variable types: 32021 continuous, 2800 integer (2800 binary)
Coefficient statistics:
  Matrix range     [3e-04, 3e+03]
  QMatrix range    [2e-03, 8e-03]
  QLMatrix range   [3e-01, 6e+01]
  Objective range  [1e+00, 1e+00]
  Bounds range     [1e+00, 1e+00]
  RHS range        [1e+00, 9e+03]
Presolve removed 54951 rows and 14748 columns
Presolve time: 0.48s
Presolved: 12283 rows, 20073 columns, 68166 nonzeros
Presolved model has 2800 quadratic constraint(s)
Variable types: 17273 continuous, 2800 integer (2800 binary)

Root relaxation: objective 5.824922e+04, 10133 iterations, 0.31 seconds (0.45 work units)

    Nodes    |    Current Node    |     Objective Bounds      |     Work
 Expl Unexpl |  Obj  Depth IntInf | Incumbent    BestBd   Gap | It/Node Time

     0     0 58249.2191    0    -          - 58249.2191      -     -    1s
     0     0 489690.143    0  750          - 489690.143      -     -    1s
     0     0 772381.496    0  701          - 772381.496      -     -    2s
     0     0 772436.905    0  319          - 772436.905      -     -    2s
     0     0 772477.120    0  319          - 772477.120      -     -    2s
     0     0 772685.067    0  319          - 772685.067      -     -    2s
     0     0 772686.237    0  319          - 772686.237      -     -    2s
     0     0 772699.800    0  319          - 772699.800      -     -    2s
     0     2 772699.801    0  319          - 772699.801      -     -    4s
     1     4 772700.118    1  298          - 772699.801      -   171    5s
H  486   447                    772820.66452 772711.185  0.01%  22.2    9s
*  486   447             141    772820.66452 772711.185  0.01%  22.2    9s

Cutting planes:
  Gomory: 52
  Lift-and-project: 35
  Implied bound: 218
  MIR: 135
  Flow cover: 119
  RLT: 299

Explored 625 nodes (38871 simplex iterations) in 10.01 seconds (15.72 work units)
Thread count was 4 (of 128 available processors)

Solution count 2: 772821 772821 

Optimal solution found (tolerance 1.00e-03)
Warning: max constraint violation (5.6096e-07) exceeds tolerance
Best objective 7.728206645191e+05, best bound 7.727111848547e+05, gap 0.0142%
